data/CVRPLIB/Vrp-Set-XML100/instances/XML100_1311_06.vrp
NAME : XML100_1311_06
COMMENT : Generated by Queiroga, Sadykov, Uchoa, and Vidal (2021)
TYPE : CVRP
DIMENSION : 101
EDGE_WEIGHT_TYPE : EUC_2D
CAPACITY : 4
NODE_COORD_SECTION
1    14   657 
2    543  901 
3    354  915 
4    126  339 
5    733  928 
6    425  742 
7    888  959 
8    187  154 
9    225  323 
10   282  193 
11   208  195 
12   210  848 
13   583  48  
14   777  358 
15   231  194 
16   137  142 
17   66   776 
18   962  769 
19   768  422 
20   201  376 
21   357  393 
22   233  379 
23   339  124 
24   792  466 
25   504  757 
26   789  131 
27   501  575 
28   302  73  
29   491  133 
30   127  140 
31   588  638 
32   317  152 
33   255  885 
34   32   221 
35   18   641 
36   117  535 
37   727  322 
38   730  382 
39   330  214 
40   161  190 
41   318  198 
42   233  923 
43   442  20  
44   315  210 
45   908  146 
46   606  966 
47   715  446 
48   630  944 
49   200  316 
50   80   73  
51   159  303 
52   190  383 
53   73   177 
54   221  174 
55   460  759 
56   800  442 
57   793  772 
58   161  913 
59   295  157 
60   774  509 
61   177  163 
62   540  237 
63   712  239 
64   644  413 
65   799  491 
66   915  718 
67   193  381 
68   611  804 
69   589  651 
70   921  62  
71   185  903 
72   916  202 
73   230  34  
74   113  185 
75   266  864 
76   186  199 
77   284  154 
78   680  336 
79   935  681 
80   452  73  
81   539  586 
82   477  752 
83   736  385 
84   279  650 
85   373  828 
86   75   412 
87   633  569 
88   84   135 
89   292  889 
90   780  651 
91   287  180 
92   7    578 
93   338  202 
94   687  219 
95   226  541 
96   822  589 
97   999  301 
98   288  274 
99   125  161 
100  732  847 
101  732  423 
DEMAND_SECTION
1    0   
2    1   
3    1   
4    1   
5    1   
6    1   
7    1   
8    1   
9    1   
10   1   
11   1   
12   1   
13   1   
14   1   
15   1   
16   1   
17   1   
18   1   
19   1   
20   1   
21   1   
22   1   
23   1   
24   1   
25   1   
26   1   
27   1   
28   1   
29   1   
30   1   
31   1   
32   1   
33   1   
34   1   
35   1   
36   1   
37   1   
38   1   
39   1   
40   1   
41   1   
42   1   
43   1   
44   1   
45   1   
46   1   
47   1   
48   1   
49   1   
50   1   
51   1   
52   1   
53   1   
54   1   
55   1   
56   1   
57   1   
58   1   
59   1   
60   1   
61   1   
62   1   
63   1   
64   1   
65   1   
66   1   
67   1   
68   1   
69   1   
70   1   
71   1   
72   1   
73   1   
74   1   
75   1   
76   1   
77   1   
78   1   
79   1   
80   1   
81   1   
82   1   
83   1   
84   1   
85   1   
86   1   
87   1   
88   1   
89   1   
90   1   
91   1   
92   1   
93   1   
94   1   
95   1   
96   1   
97   1   
98   1   
99   1   
100  1   
101  1   
DEPOT_SECTION
1
-1
EOF
