data/CVRPLIB/Vrp-Set-XML100/solutions/XML100_1311_06.sol
Route #1: 54 24 81 5
Route #2: 72 27 22 31
Route #3: 11 41 70 57
Route #4: 39 60 7 75
Route #5: 28 12 42 79
Route #6: 4 6 99 67
Route #7: 51 66 19 21
Route #8: 43 40 92 38
Route #9: 52 87 49 33
Route #10: 20 97 8 48
Route #11: 78 65 17 56
Route #12: 77 36 13 82
Route #13: 89 95 59 86
Route #14: 62 25 93 61
Route #15: 69 44 71 96
Route #16: 45 47 1 84
Route #17: 73 29 15 98
Route #18: 63 37 100 46
Route #19: 50 10 53 14
Route #20: 68 30 80 26
Route #21: 64 23 55 18
Route #22: 76 58 90 9
Route #23: 35 3 85 91
Route #24: 32 2 88 74
Route #25: 16 83 94 34
Cost 33045
